&CONTROL
   calculation      = 'bands'
   verbosity        = 'high'
   restart_mode     = 'from_scratch' 
   outdir           = './outdir/'
   prefix           = 'hBN'
   pseudo_dir       = '/work_quota/trkm/trkm002/DFT/Pseudopotential/PAW'
   etot_conv_thr    = 1.6d-5
   forc_conv_thr    = 5.0d-5
/

&SYSTEM
   ibrav            = 0
   nat              = 32
   ntyp             = 2
   nbnd             = 100
   ecutwfc          = 60
   ecutrho          = 480
   nspin            = 2
   starting_magnetization(1) = 0.1
   starting_magnetization(2) = 0.1
   occupations      = 'smearing'
   smearing         = 'cold'
   degauss          = 0.0125
   nosym            = .false.
/

&ELECTRONS
   electron_maxstep         = 200
   conv_thr                 = 3.2d-9
   mixing_mode              = 'local-TF'
   mixing_beta              = 0.4
   mixing_ndim              = 12
   diagonalization          = 'david'
/

ATOMIC_SPECIES
   N 14.0070000036  N-pbesol-jth-v1.1.upf
   B 10.8110000028  B-pbesol-jth-v1.1.upf

CELL_PARAMETERS angstrom
10.10592087223931 0.00000000000000 0.00000000000000
-5.05308795071666 8.75220502750916 0.00000000000000
0.00000000000000 0.00000000000000 15.00000000000000

ATOMIC_POSITIONS angstrom
N 0.0067864221 -0.0876414672 7.5316159726  
B 1.2271542642 0.7252369197 7.5109941118  
N -1.3128956337 2.0933385242 7.6465208333  
B -0.0555591442 2.7859055224 7.5406682199  
N -2.6064603808 4.1608244789 7.4436558602  
B -1.3235497666 4.9269484289 7.4417685130  
N 6.3515121110 6.4785852371 7.1268943266  
B -2.4494845587 7.2065819199 7.5577664892  
N 2.3693813213 0.0636766175 7.5177104736  
B 3.6641985151 0.6084331057 7.4024714147  
N 1.2244158603 2.1071993832 7.5067568342  
B 2.5319552083 2.9471676200 7.5567159358  
N 0.0240967840 4.2830421196 7.4780472486  
B 1.1777431621 5.1189517231 7.5852326355  
N -1.2485129172 6.5616406957 7.4281708448  
B -0.0404928381 7.2941425606 7.5185399380  
N 4.9456906243 -0.0812322294 7.5764342843  
B 6.2151999041 0.6963602906 7.6896153036  
N 3.8052500134 2.2880034995 7.3405031111  
B 5.0049431384 2.8415404714 7.0871325692  
N 2.3725987597 4.4966244882 7.8871209354  
N 3.3726546638 5.3802212521 7.0727324584  
N 1.0648067757 6.4932203969 7.6199870030  
B 2.3252572609 7.2095991727 7.7853071523  
N 7.5626954702 -0.0465864929 7.7660500697  
B 8.7623355269 0.6564839363 7.5510016019  
N 6.2842523250 2.1338058814 7.5240441528  
B 7.5190963024 2.8083739943 7.7508442341  
N 5.3145075416 4.1763937255 7.0059108652  
B 6.3846974357 5.0293727097 6.9649938667  
N 3.5798213355 6.5392124745 7.9657604664  
B 5.0396998509 7.2326771196 7.4480076186  

K_POINTS (crystal_b)
4
0.00000    0.00000    0.00000   80 !Γ
0.66667   -0.33333    0.00000   80 !K
0.50000    0.00000    0.00000   80 !M
0.00000    0.00000    0.00000   80 !Γ
