&CONTROL
   calculation      = 'bands'
   verbosity        = 'high'
   restart_mode     = 'from_scratch' 
   outdir           = './outdir/'
   prefix           = 'hBN'
   pseudo_dir       = '/work_quota/trkm/trkm002/DFT/Pseudopotential/PAW'
   etot_conv_thr    = 1.6d-5
   forc_conv_thr    = 5.0d-5
/

&SYSTEM
   ibrav            = 0
   nat              = 32
   ntyp             = 2
   nbnd             = 100
   ecutwfc          = 60
   ecutrho          = 480
   nspin            = 2
   starting_magnetization(1) = 0.1
   starting_magnetization(2) = 0.1
   occupations      = 'smearing'
   smearing         = 'cold'
   degauss          = 0.0125
   nosym            = .false.
/

&ELECTRONS
   electron_maxstep         = 200
   conv_thr                 = 3.2d-9
   mixing_mode              = 'local-TF'
   mixing_beta              = 0.4
   mixing_ndim              = 12
   diagonalization          = 'david'
/

ATOMIC_SPECIES
   N 14.0070000036  N-pbesol-jth-v1.1.upf
   B 10.8110000028  B-pbesol-jth-v1.1.upf

CELL_PARAMETERS angstrom
9.99794642737726 0.00000000000000 0.00000000000000
-4.99896750404702 8.65846566455865 0.00000000000000
0.00000000000000 0.00000000000000 15.00000000000000

ATOMIC_POSITIONS angstrom
N 0.0291474987 0.0119886842 7.2637644944  
B 1.2707673804 0.6555318349 7.4562021022  
N -1.2091363312 2.1656201498 7.0787186161  
B -0.0258587549 2.9099344426 7.1326144009  
N -2.5321271938 4.3055773606 7.2638682831  
B -1.2921387230 5.0510614064 7.1269776200  
N 6.1768379547 6.4586839680 7.5625388904  
B -2.5548653975 7.1933868465 7.3971419914  
N 2.5315511387 -0.0029361315 7.5680399071  
B 3.8408880525 0.6181430540 7.6151594207  
N 1.2375563125 2.2982591700 7.2802427679  
B 2.5435055153 2.6700967816 7.6187898890  
N -0.0836162579 4.3250722070 7.1885393089  
B 1.0138583480 5.0357817180 7.4070085520  
N -1.3028403522 6.4799374501 7.1409604536  
B -0.0881870076 7.1506261415 7.3497052193  
N 5.0152689449 -0.1027614143 7.3014358197  
B 6.2707691237 0.6116597736 7.3337229666  
N 3.7706980674 2.0337087520 7.7644379327  
B 5.2048531195 2.8469743109 7.8732296002  
B 2.1660634199 5.3175931403 8.6819233700  
B 3.9150867005 5.1389968857 8.2939614048  
N 1.2172210191 6.4414450225 7.4727027310  
B 2.4307532422 7.1771315901 7.5231618907  
N 7.5524453335 -0.0109473521 7.4362291783  
B 8.8235391892 0.7708833710 7.2368502992  
N 6.3089771008 2.1187173161 7.3346615262  
B 7.5636824909 2.9365446248 7.1620831686  
N 5.0914841266 4.3301209918 8.2296023672  
B 6.3017747890 4.9820712262 7.7187076827  
N 3.6856045420 6.4250649498 7.8170168221  
B 4.9490626661 7.1673695736 7.5075476007  s

K_POINTS (crystal_b)
4
0.00000    0.00000    0.00000   80 !Γ
0.66667   -0.33333    0.00000   80 !K
0.50000    0.00000    0.00000   80 !M
0.00000    0.00000    0.00000   80 !Γ
