&CONTROL
   calculation      = 'scf'
   verbosity        = 'high'
   restart_mode     = 'from_scratch' 
   outdir           = './outdir/'
   prefix           = 'hBN'
   pseudo_dir       = '/work_quota/trkm/trkm002/DFT/Pseudopotential/PAW'
   etot_conv_thr    = 1.6d-5
   forc_conv_thr    = 5.0d-5
/

&SYSTEM
   ibrav            = 0
   nat              = 32
   ntyp             = 2
   nbnd             = 100
   ecutwfc          = 60
   ecutrho          = 480
   nspin            = 2
   starting_magnetization(1) = 0.1
   starting_magnetization(2) = 0.1
   occupations      = 'smearing'
   smearing         = 'cold'
   degauss          = 0.0125
   nosym            = .false.
/

&ELECTRONS
   electron_maxstep         = 200
   conv_thr                 = 3.2d-9
   mixing_mode              = 'local-TF'
   mixing_beta              = 0.4
   mixing_ndim              = 12
   diagonalization          = 'david'
/

ATOMIC_SPECIES
   N 14.0070000036  N-pbesol-jth-v1.1.upf
   B 10.8110000028  B-pbesol-jth-v1.1.upf

CELL_PARAMETERS angstrom
10.10592087223931 0.00000000000000 0.00000000000000
-5.05308795071666 8.75220502750916 0.00000000000000
0.00000000000000 0.00000000000000 15.00000000000000

ATOMIC_POSITIONS angstrom
N 0.0067830633 -0.0633264431 7.4869198992  
B 1.1624258379 0.6453924571 7.5651726618  
N -1.2639075966 2.1070666587 7.6064254606  
B -0.0938542900 2.8291858808 7.6397477208  
N -2.4924831300 4.3503949182 7.4276892275  
B -1.2914541356 5.0547089166 7.4818417772  
N 6.2233918704 6.4844872070 7.2680982117  
B -2.6145208852 7.1752084533 7.4623614559  
N 2.4796447614 0.0096752430 7.6380381310  
B 3.7625119700 0.6628872007 7.5359185970  
N 1.2870272852 2.0991104132 7.6230478328  
B 2.5678048910 2.9140693492 7.5758812411  
N -0.0530718253 4.3204186119 7.5491062918  
B 1.0413904967 5.0957287529 7.8830789104  
N -1.4354338916 6.5188505230 7.4672584873  
B -0.0835586930 7.2533588500 7.5771387499  
N 5.0322215049 -0.0441565017 7.4089246050  
B 6.3369512564 0.6694803668 7.3320696268  
N 3.7727236167 2.3087535568 7.2822677946  
B 5.0921890601 2.8440420130 6.9644319976  
N 2.3401159751 4.5006105079 7.9245408455  
N 3.2555428997 5.3565338509 7.0059102032  
N 1.0468734187 6.4940888715 7.9600937921  
B 2.3688826461 7.2198191868 7.8709027343  
N 7.5910845595 -0.1253814403 7.5889671071  
B 8.8026431362 0.6550620955 7.5349316800  
N 6.3807586584 2.0419742877 7.1526326552  
B 7.5359485601 2.9144561044 7.3638207995  
N 5.3294558847 4.2431673314 7.0538299410  
B 6.3530978575 4.9704241603 7.1852273223  
N 3.6279628668 6.4445324966 7.9462408381  
B 5.0193001962 7.1755670610 7.4806263937  

K_POINTS (automatic)
8 8 1 0 0 0
