&CONTROL
   calculation      = 'scf'
   verbosity        = 'high'
   restart_mode     = 'from_scratch' 
   outdir           = './outdir/'
   prefix           = 'hBN'
   pseudo_dir       = '/work_quota/trkm/trkm002/DFT/Pseudopotential/PAW'
   etot_conv_thr    = 1.6d-5
   forc_conv_thr    = 5.0d-5
/

&SYSTEM
   ibrav            = 0
   nat              = 32
   ntyp             = 2
   nbnd             = 100
   ecutwfc          = 60
   ecutrho          = 480
   nspin            = 2
   starting_magnetization(1) = 0.1
   starting_magnetization(2) = 0.1
   occupations      = 'smearing'
   smearing         = 'cold'
   degauss          = 0.0125
   nosym            = .false.
/

&ELECTRONS
   electron_maxstep         = 200
   conv_thr                 = 3.2d-9
   mixing_mode              = 'local-TF'
   mixing_beta              = 0.4
   mixing_ndim              = 12
   diagonalization          = 'david'
/

ATOMIC_SPECIES
   N 14.0070000036  N-pbesol-jth-v1.1.upf
   B 10.8110000028  B-pbesol-jth-v1.1.upf

CELL_PARAMETERS angstrom
10.03595842074822 0.00000000000000 0.00000000000000
-5.01797924119703 8.69139495909871 0.00000000000000
0.00000000000000 0.00000000000000 15.00000000000000

ATOMIC_POSITIONS angstrom
N -0.0927205807 0.0266397597 7.1821229589  
B 1.1618565008 0.8477563148 7.1632680127  
N -1.3336148543 2.3067070185 7.2132548222  
B 0.0044353982 3.0590038552 7.3181275377  
N -2.5220663080 4.3637654411 7.7185336969  
B -1.1994426338 5.1585247779 7.7856036543  
N 6.2115172096 6.5406387961 7.4461443995  
B -2.5671359011 7.2662790945 7.4861213802  
N 2.3739964754 0.0234354640 7.2981262758  
B 3.7168488533 0.5701806603 7.2690926438  
N 1.1334931065 2.2393914627 7.3430163884  
B 2.5483719071 2.8318860850 7.7176085032  
N 0.1179198509 4.3986175318 7.6721532817  
B 1.3337703195 5.1179007620 8.0517687478  
N -1.3119043993 6.6183757208 7.7366844257  
B 0.0917335591 7.2278610346 7.4499793173  
N 4.9873073416 -0.0739924554 7.1675002343  
B 6.2789835742 0.7001258441 7.3503161502  
N 3.7550716422 2.1014464338 7.6660571848  
B 5.0271648628 2.8574086389 7.6313980920  
N 2.4734824417 4.2817919689 8.0347490884  
B 3.8028946958 4.9161975727 7.7589286238  
N 1.3848234692 6.5394969676 7.7375783231  
B 2.4615942414 7.1842013110 7.5105529687  
N 7.4817427673 -0.2012264578 7.3689600821  
B 8.7210092486 0.6990058496 7.1811016806  
N 6.2404230941 2.0885038845 7.5329453957  
B 7.4729127716 2.8716941745 7.4768342073  
N 5.1119659617 4.2350233473 7.7677211911  
B 6.3055478170 5.1088332086 7.5676766228  
N 3.6107316015 6.4244317723 7.3613314731  
B 4.8525793888 7.1736339594 7.3393540615  

K_POINTS (automatic)
8 8 1 0 0 0
