&CONTROL
   calculation      = 'scf'
   verbosity        = 'high'
   restart_mode     = 'from_scratch' 
   outdir           = './outdir/'
   prefix           = 'hBN'
   pseudo_dir       = '/work_quota/trkm/trkm002/DFT/Pseudopotential/PAW'
   etot_conv_thr    = 1.6d-5
   forc_conv_thr    = 5.0d-5
/

&SYSTEM
   ibrav            = 0
   nat              = 32
   ntyp             = 2
   nbnd             = 100
   ecutwfc          = 60
   ecutrho          = 480
   nspin            = 2
   starting_magnetization(1) = 0.1
   starting_magnetization(2) = 0.1
   occupations      = 'smearing'
   smearing         = 'cold'
   degauss          = 0.0125
   nosym            = .false.
/

&ELECTRONS
   electron_maxstep         = 200
   conv_thr                 = 3.2d-9
   mixing_mode              = 'local-TF'
   mixing_beta              = 0.4
   mixing_ndim              = 12
   diagonalization          = 'david'
/

ATOMIC_SPECIES
   N 14.0070000036  N-pbesol-jth-v1.1.upf
   B 10.8110000028  B-pbesol-jth-v1.1.upf

CELL_PARAMETERS angstrom
10.03595842074822 0.00000000000000 0.00000000000000
-5.01797924119703 8.69139495909871 0.00000000000000
0.00000000000000 0.00000000000000 15.00000000000000

ATOMIC_POSITIONS angstrom
N -0.1223948781 0.0402985092 7.3963192814  
B 1.2249044271 0.8362166158 7.3445453281  
N -1.3850528237 2.1973000436 7.3059117421  
B -0.0881546761 2.9104398369 7.1865150656  
N -2.5798863425 4.4549546376 7.5568551083  
B -1.2966947443 5.1035962795 7.4627165836  
N 6.2148576844 6.4464896993 7.6992490522  
B -2.5095480472 7.2260314074 7.6612924588  
N 2.5041778881 0.0016318257 7.6273451898  
B 3.7693217881 0.6827920554 7.5792192394  
N 1.2944634210 2.1875350809 7.3496244203  
B 2.5589805121 2.9469293391 7.5810457412  
N -0.0363064560 4.3441233463 7.2178917452  
B 1.2447743199 5.1333444371 7.4871978399  
N -1.2339448362 6.4986854668 7.5154259002  
B 0.0134026426 7.2569163738 7.4446880513  
N 5.0071130689 -0.0481960888 7.4889299056  
B 6.2055800643 0.6596741242 7.4516523021  
N 3.7838551330 2.2005130286 7.5964537289  
B 5.1293518444 2.7971513942 7.6676219946  
N 2.4578769716 4.3484813101 7.6943407599  
B 3.7474990819 4.9698418780 7.8354326552  
N 1.2752535414 6.5277800029 7.4138482336  
B 2.5508837825 7.2151313565 7.4124328404  
N 7.5285613734 -0.0441138780 7.3387058913  
B 8.7272262302 0.7095511128 7.2850718297  
N 6.2941379661 2.0588548157 7.5522395851  
B 7.5148838209 2.9745861273 7.5746487079  
N 4.9474453217 4.2608547239 7.8796936953  
B 6.1807560180 5.0119608962 7.7629301203  
N 3.7351026573 6.4518376362 7.4933097993  
B 4.9582154399 7.1382125339 7.4771489465  

K_POINTS (automatic)
8 8 1 0 0 0
