&CONTROL
   calculation      = 'nscf'
   verbosity        = 'high'
   restart_mode     = 'from_scratch' 
   outdir           = './outdir/'
   prefix           = 'hBN'
   pseudo_dir       = '/work_quota/trkm/trkm002/DFT/Pseudopotential/PAW'
   etot_conv_thr    = 1.6d-5
   forc_conv_thr    = 5.0d-5
/

&SYSTEM
   ibrav            = 0
   nat              = 32
   ntyp             = 2
   nbnd             = 100
   ecutwfc          = 60
   ecutrho          = 480
   nspin            = 2
   starting_magnetization(1) = 0.1
   starting_magnetization(2) = 0.1
   occupations      = 'tetrahedra'
   nosym            = .false.
/

&ELECTRONS
   electron_maxstep         = 200
   conv_thr                 = 3.2d-9
   mixing_mode              = 'local-TF'
   mixing_beta              = 0.4
   mixing_ndim              = 12
   diagonalization          = 'david'
/

ATOMIC_SPECIES
   N 14.0070000036  N-pbesol-jth-v1.1.upf
   B 10.8110000028  B-pbesol-jth-v1.1.upf

CELL_PARAMETERS angstrom
10.10592087223931 0.00000000000000 0.00000000000000
-5.05308795071666 8.75220502750916 0.00000000000000
0.00000000000000 0.00000000000000 15.00000000000000

ATOMIC_POSITIONS angstrom
N -0.1206203120 -0.1364126951 7.1781908205  
B 1.2667656302 0.7104704319 7.1775331941  
N -1.1623242739 2.1179476062 7.4217692679  
B 0.0581089308 2.9226835763 7.3724379041  
N -2.4842756559 4.3871191685 7.6671234549  
B -1.2652674582 5.0479405698 7.3137689142  
N 6.2565510333 6.4074630303 7.4245626140  
B -2.6503854111 7.1503032001 7.2698876853  
N 2.3086446796 -0.1459982802 7.2611475298  
B 3.6176603945 0.6166527700 7.5125372010  
N 1.3262907746 2.1250311551 7.3572321124  
B 2.5922380133 2.9102494177 7.5139378071  
N 0.0566144235 4.3553634019 7.3715741918  
B 1.1872520542 5.1762811963 7.6694490799  
N -1.3069669718 6.5950204714 7.1811709860  
B -0.1223332580 7.2796092923 7.3889801686  
N 4.8717164075 0.0186550116 7.4784053094  
B 6.2158522490 0.6828836638 7.4783943393  
N 3.7549040849 2.1433428647 7.6777270814  
B 5.0662177313 2.8301934976 7.8744437978  
N 2.4016728977 4.4830937463 7.9797768312  
N 3.3164575737 5.2177224733 7.0026119627  
N 1.1961972196 6.5450127981 7.5717016359  
B 2.3567912189 7.2217478230 7.5684240535  
N 7.4013317555 -0.1016749508 7.4199166485  
B 8.7980200044 0.6978619508 7.3500493435  
N 6.3622312161 2.1483342357 7.7008284366  
B 7.6374731151 2.8738026927 7.6730223072  
N 5.2998292574 4.1538810715 8.0754704315  
B 6.3548263870 5.0735083057 7.8104894656  
N 3.5476407719 6.4970801015 7.7562647376  
B 4.9797221081 7.1907352599 7.3042616208  

K_POINTS (automatic)
16 16 1 0 0 0
