&BANDS
   prefix         = 'hBN'
   outdir         = './outdir/'
   filband        = 'hBN_bands_dn.dat'
   spin_component = 2
/
