&CONTROL
   calculation      = 'bands'
   verbosity        = 'high'
   restart_mode     = 'from_scratch' 
   outdir           = './outdir/'
   prefix           = 'hBN'
   pseudo_dir       = '/work_quota/trkm/trkm002/DFT/Pseudopotential/PAW'
   etot_conv_thr    = 1.6d-5
   forc_conv_thr    = 5.0d-5
/

&SYSTEM
   ibrav            = 0
   nat              = 32
   ntyp             = 2
   nbnd             = 100
   ecutwfc          = 60
   ecutrho          = 480
   nspin            = 2
   starting_magnetization(1) = 0.1
   starting_magnetization(2) = 0.1
   occupations      = 'smearing'
   smearing         = 'cold'
   degauss          = 0.0125
   nosym            = .false.
/

&ELECTRONS
   electron_maxstep         = 200
   conv_thr                 = 3.2d-9
   mixing_mode              = 'local-TF'
   mixing_beta              = 0.4
   mixing_ndim              = 12
   diagonalization          = 'david'
/

ATOMIC_SPECIES
   N 14.0070000036  N-pbesol-jth-v1.1.upf
   B 10.8110000028  B-pbesol-jth-v1.1.upf

CELL_PARAMETERS angstrom
9.99794642737726 0.00000000000000 0.00000000000000
-4.99896750404702 8.65846566455865 0.00000000000000
0.00000000000000 0.00000000000000 15.00000000000000

ATOMIC_POSITIONS angstrom
N -0.0649540871 -0.1560566426 7.1812246742  
B 1.1736206921 0.5699376665 7.2199895929  
N -1.2977241859 2.2297204058 7.0816536884  
B 0.0020508097 2.8422075036 7.2401453428  
N -2.4829752423 4.2223300611 7.4302616572  
B -1.3404636714 4.9690320728 7.7123995696  
N 6.2342759024 6.4175405434 7.7060634750  
B -2.4798749817 7.1866887752 7.5602605342  
N 2.4756181148 -0.1051617521 7.2590479079  
B 3.7746718593 0.5730758952 7.4300131587  
N 1.2418539327 2.0205434621 7.3153687422  
B 2.5145821903 2.5907908115 7.4168148115  
N 0.0771475604 4.2676627038 7.5747927518  
B 1.1608006972 5.0270871227 7.4036510262  
N -1.2388175996 6.4132080530 7.6738198746  
B 0.0619293266 7.1187266519 7.5926916016  
N 5.0051293963 0.0694807871 7.4102353378  
B 6.1757439199 0.7896830268 7.1772661582  
N 3.6912212439 2.2315411972 7.3635051462  
B 5.0383024308 2.8500611247 7.6289996914  
B 2.4506254509 6.3092737864 8.3523243019  
B 4.0907845114 5.0351465792 8.7224097721  
N 1.4329456609 6.3786761977 7.2455786885  
B 2.1290436167 7.4113272858 6.6477760506  
N 7.4011408787 0.0044380391 6.8776239830  
B 8.7067087266 0.6700720357 7.0057268282  
N 6.1534629412 2.0288015855 7.3059908377  
B 7.4377429019 2.8019393542 7.0654438606  
N 5.0825534436 4.1588033642 8.2896929234  
B 6.2720818754 5.0104529341 7.7057311100  
N 3.8551280388 6.5014453885 8.5183723621  
B 5.0655260749 7.2486337640 7.8658498425  

K_POINTS (crystal_b)
4
0.00000    0.00000    0.00000   80 !Γ
0.66667   -0.33333    0.00000   80 !K
0.50000    0.00000    0.00000   80 !M
0.00000    0.00000    0.00000   80 !Γ
