&CONTROL
   calculation      = 'nscf'
   verbosity        = 'high'
   restart_mode     = 'from_scratch' 
   outdir           = './outdir/'
   prefix           = 'hBN'
   pseudo_dir       = '/work_quota/trkm/trkm002/DFT/Pseudopotential/PAW'
   etot_conv_thr    = 1.6d-5
   forc_conv_thr    = 5.0d-5
/

&SYSTEM
   ibrav            = 0
   nat              = 32
   ntyp             = 2
   nbnd             = 100
   ecutwfc          = 60
   ecutrho          = 480
   nspin            = 2
   starting_magnetization(1) = 0.1
   starting_magnetization(2) = 0.1
   occupations      = 'tetrahedra'
   nosym            = .false.
/

&ELECTRONS
   electron_maxstep         = 200
   conv_thr                 = 3.2d-9
   mixing_mode              = 'local-TF'
   mixing_beta              = 0.4
   mixing_ndim              = 12
   diagonalization          = 'david'
/

ATOMIC_SPECIES
   N 14.0070000036  N-pbesol-jth-v1.1.upf
   B 10.8110000028  B-pbesol-jth-v1.1.upf

CELL_PARAMETERS angstrom
9.99794642737726 0.00000000000000 0.00000000000000
-4.99896750404702 8.65846566455865 0.00000000000000
0.00000000000000 0.00000000000000 15.00000000000000

ATOMIC_POSITIONS angstrom
N -0.0176600943 -0.0162382500 7.6702016526  
B 1.2957500586 0.5552181003 7.6121020052  
N -1.1903257774 2.1983101283 7.2928937748  
B -0.0006566582 2.8573733305 7.3987878055  
N -2.6459860452 4.2787881180 7.6671036108  
B -1.3413701032 4.9677932183 7.7668715969  
N 6.2182852950 6.4954086915 7.8117624149  
B -2.5048014150 7.0219823553 8.0548252191  
N 2.4593270022 -0.1922973986 7.5498807012  
B 3.6782869151 0.5129681671 7.2957378735  
N 1.3070698964 2.1045394377 7.3070056418  
B 2.4821492441 2.6654218001 6.9627276998  
N -0.0233173863 4.3111588248 7.3173770755  
B 1.1304605006 5.0645697212 7.2372794017  
N -1.1447413407 6.3531342577 8.0721046696  
B 0.1263021771 7.1122726196 7.7959386060  
N 4.9928185310 -0.0994786574 7.4781997256  
B 6.1885446725 0.7617213970 7.3099634271  
N 3.7987680028 2.0624571973 6.9990536621  
B 4.9430204438 2.7939812527 7.1681184297  
B 2.4898178241 5.9528844338 8.6144122536  
B 3.9412981130 5.1072840534 7.3239925172  
N 1.4222638912 6.4056341015 7.6093672566  
B 2.4581392308 7.4121673195 7.0969933942  
N 7.4731120820 0.1266495782 7.1280228431  
B 8.7683707760 0.7720076844 7.3881709143  
N 6.1966770843 2.1164909555 7.2673862753  
B 7.4824221928 2.8268346015 7.4135111492  
N 4.9464681254 4.2652342340 7.4930652278  
B 6.1891053707 5.0954491419 7.5851288554  
N 3.6982979883 6.4590247730 7.5663039172  
B 5.0041425415 7.2834249103 7.7274714577  

K_POINTS (automatic)
16 16 1 0 0 0
