&CONTROL
   calculation      = 'bands'
   verbosity        = 'high'
   restart_mode     = 'from_scratch' 
   outdir           = './outdir/'
   prefix           = 'hBN'
   pseudo_dir       = '/work_quota/trkm/trkm002/DFT/Pseudopotential/PAW'
   etot_conv_thr    = 1.6d-5
   forc_conv_thr    = 5.0d-5
/

&SYSTEM
   ibrav            = 0
   nat              = 32
   ntyp             = 2
   nbnd             = 100
   ecutwfc          = 60
   ecutrho          = 480
   nspin            = 2
   starting_magnetization(1) = 0.1
   starting_magnetization(2) = 0.1
   occupations      = 'smearing'
   smearing         = 'cold'
   degauss          = 0.0125
   nosym            = .false.
/

&ELECTRONS
   electron_maxstep         = 200
   conv_thr                 = 3.2d-9
   mixing_mode              = 'local-TF'
   mixing_beta              = 0.4
   mixing_ndim              = 12
   diagonalization          = 'david'
/

ATOMIC_SPECIES
   N 14.0070000036  N-pbesol-jth-v1.1.upf
   B 10.8110000028  B-pbesol-jth-v1.1.upf

CELL_PARAMETERS angstrom
10.03595842074822 0.00000000000000 0.00000000000000
-5.01797924119703 8.69139495909871 0.00000000000000
0.00000000000000 0.00000000000000 15.00000000000000

ATOMIC_POSITIONS angstrom
N -0.0626885767 0.0415027825 7.4999194314  
B 1.1706637783 0.6571200326 7.4340604407  
N -1.2350821750 2.1856042796 7.6747879957  
B 0.0293795242 2.9171704064 7.4444468625  
N -2.5254749088 4.3485033819 7.5634193460  
B -1.2591587937 5.0619728118 7.4451588490  
N 6.1989911254 6.4974600806 7.6606492014  
B -2.5459482992 7.2189495015 7.5607262610  
N 2.4416427155 -0.0634507842 7.5034807557  
B 3.6921410225 0.6624228186 7.4958428569  
N 1.2411725990 2.1488229034 7.3990555443  
B 2.4860476573 2.8492372952 7.3169429011  
N -0.0221877787 4.3532890219 7.2567057531  
B 1.2073489581 5.0959455956 7.3942197746  
N -1.2296389510 6.5572677887 7.5026806945  
B 0.0159765427 7.2464858256 7.5154329294  
N 5.0774744324 -0.0144665215 7.6917407501  
B 6.2151024711 0.6237503949 7.6744825352  
N 3.7905404951 2.1098362038 7.4418789961  
B 5.0285740304 2.8031565581 7.7108038183  
N 2.4267145214 4.3253147530 7.3694491935  
B 3.7276912287 5.0472833825 7.4190730077  
N 1.2488204292 6.5313115679 7.3197346261  
B 2.4740180295 7.3062294379 7.3323294826  
N 7.4689215426 0.0019341210 7.5800876409  
B 8.7304496316 0.7278115708 7.6820724095  
N 6.3337622954 2.1348599612 7.7153530094  
B 7.5367406262 2.9208524730 7.7635368912  
N 4.9560960103 4.3231758310 7.5916282678  
B 6.2330568585 5.0419833162 7.5700887076  
N 3.7340177622 6.5676880178 7.3446175522  
B 4.9848213337 7.2344262729 7.4691359105   

K_POINTS (crystal_b)
4
0.00000    0.00000    0.00000   80 !Γ
0.66667   -0.33333    0.00000   80 !K
0.50000    0.00000    0.00000   80 !M
0.00000    0.00000    0.00000   80 !Γ
